400 50
114 137
145 108
52 141
222 21
85 143
268 5
37 78
114 68
54 24
132 28
80 65
69 127
31 17
31 62
255 108
36 30
89 18
268 14
29 76
23 43
178 17
53 8
132 8
24 7
58 7
17 39
54 19
100 24
89 12
24 10
132 36
34 7
53 17
15 76
112 9
32 78
132 11
44 30
53 5
43 17
10 37
19 76
24 14
104 9
58 3
52 9
268 8
7 37
178 10
31 43
